p cnf 54 501
1 7 13 19 25 31 37 43 49 0
2 8 14 20 26 32 38 44 50 0
3 9 15 21 27 33 39 45 51 0
4 10 16 22 28 34 40 46 52 0
5 11 17 23 29 35 41 47 53 0
6 12 18 24 30 36 42 48 54 0
-1 -2 0
-1 -3 0
-1 -4 0
-1 -5 0
-1 -6 0
-2 -3 0
-2 -4 0
-2 -5 0
-2 -6 0
-3 -4 0
-3 -5 0
-3 -6 0
-4 -5 0
-4 -6 0
-5 -6 0
-7 -8 0
-7 -9 0
-7 -10 0
-7 -11 0
-7 -12 0
-8 -9 0
-8 -10 0
-8 -11 0
-8 -12 0
-9 -10 0
-9 -11 0
-9 -12 0
-10 -11 0
-10 -12 0
-11 -12 0
-13 -14 0
-13 -15 0
-13 -16 0
-13 -17 0
-13 -18 0
-14 -15 0
-14 -16 0
-14 -17 0
-14 -18 0
-15 -16 0
-15 -17 0
-15 -18 0
-16 -17 0
-16 -18 0
-17 -18 0
-19 -20 0
-19 -21 0
-19 -22 0
-19 -23 0
-19 -24 0
-20 -21 0
-20 -22 0
-20 -23 0
-20 -24 0
-21 -22 0
-21 -23 0
-21 -24 0
-22 -23 0
-22 -24 0
-23 -24 0
-25 -26 0
-25 -27 0
-25 -28 0
-25 -29 0
-25 -30 0
-26 -27 0
-26 -28 0
-26 -29 0
-26 -30 0
-27 -28 0
-27 -29 0
-27 -30 0
-28 -29 0
-28 -30 0
-29 -30 0
-31 -32 0
-31 -33 0
-31 -34 0
-31 -35 0
-31 -36 0
-32 -33 0
-32 -34 0
-32 -35 0
-32 -36 0
-33 -34 0
-33 -35 0
-33 -36 0
-34 -35 0
-34 -36 0
-35 -36 0
-37 -38 0
-37 -39 0
-37 -40 0
-37 -41 0
-37 -42 0
-38 -39 0
-38 -40 0
-38 -41 0
-38 -42 0
-39 -40 0
-39 -41 0
-39 -42 0
-40 -41 0
-40 -42 0
-41 -42 0
-43 -44 0
-43 -45 0
-43 -46 0
-43 -47 0
-43 -48 0
-44 -45 0
-44 -46 0
-44 -47 0
-44 -48 0
-45 -46 0
-45 -47 0
-45 -48 0
-46 -47 0
-46 -48 0
-47 -48 0
-49 -50 0
-49 -51 0
-49 -52 0
-49 -53 0
-49 -54 0
-50 -51 0
-50 -52 0
-50 -53 0
-50 -54 0
-51 -52 0
-51 -53 0
-51 -54 0
-52 -53 0
-52 -54 0
-53 -54 0
-1 -20 0
-1 -21 0
-1 -22 0
-1 -23 0
-1 -24 0
-2 -19 0
-2 -21 0
-2 -22 0
-2 -23 0
-2 -24 0
-3 -19 0
-3 -20 0
-3 -22 0
-3 -23 0
-3 -24 0
-4 -19 0
-4 -20 0
-4 -21 0
-4 -23 0
-4 -24 0
-5 -19 0
-5 -20 0
-5 -21 0
-5 -22 0
-5 -24 0
-6 -19 0
-6 -20 0
-6 -21 0
-6 -22 0
-6 -23 0
-1 -26 0
-1 -27 0
-1 -28 0
-1 -29 0
-1 -30 0
-2 -25 0
-2 -27 0
-2 -28 0
-2 -29 0
-2 -30 0
-3 -25 0
-3 -26 0
-3 -28 0
-3 -29 0
-3 -30 0
-4 -25 0
-4 -26 0
-4 -27 0
-4 -29 0
-4 -30 0
-5 -25 0
-5 -26 0
-5 -27 0
-5 -28 0
-5 -30 0
-6 -25 0
-6 -26 0
-6 -27 0
-6 -28 0
-6 -29 0
-1 -38 0
-1 -39 0
-1 -40 0
-1 -41 0
-1 -42 0
-2 -37 0
-2 -39 0
-2 -40 0
-2 -41 0
-2 -42 0
-3 -37 0
-3 -38 0
-3 -40 0
-3 -41 0
-3 -42 0
-4 -37 0
-4 -38 0
-4 -39 0
-4 -41 0
-4 -42 0
-5 -37 0
-5 -38 0
-5 -39 0
-5 -40 0
-5 -42 0
-6 -37 0
-6 -38 0
-6 -39 0
-6 -40 0
-6 -41 0
-1 -50 0
-1 -51 0
-1 -52 0
-1 -53 0
-1 -54 0
-2 -49 0
-2 -51 0
-2 -52 0
-2 -53 0
-2 -54 0
-3 -49 0
-3 -50 0
-3 -52 0
-3 -53 0
-3 -54 0
-4 -49 0
-4 -50 0
-4 -51 0
-4 -53 0
-4 -54 0
-5 -49 0
-5 -50 0
-5 -51 0
-5 -52 0
-5 -54 0
-6 -49 0
-6 -50 0
-6 -51 0
-6 -52 0
-6 -53 0
-7 -20 0
-7 -21 0
-7 -22 0
-7 -23 0
-7 -24 0
-8 -19 0
-8 -21 0
-8 -22 0
-8 -23 0
-8 -24 0
-9 -19 0
-9 -20 0
-9 -22 0
-9 -23 0
-9 -24 0
-10 -19 0
-10 -20 0
-10 -21 0
-10 -23 0
-10 -24 0
-11 -19 0
-11 -20 0
-11 -21 0
-11 -22 0
-11 -24 0
-12 -19 0
-12 -20 0
-12 -21 0
-12 -22 0
-12 -23 0
-13 -20 0
-13 -21 0
-13 -22 0
-13 -23 0
-13 -24 0
-14 -19 0
-14 -21 0
-14 -22 0
-14 -23 0
-14 -24 0
-15 -19 0
-15 -20 0
-15 -22 0
-15 -23 0
-15 -24 0
-16 -19 0
-16 -20 0
-16 -21 0
-16 -23 0
-16 -24 0
-17 -19 0
-17 -20 0
-17 -21 0
-17 -22 0
-17 -24 0
-18 -19 0
-18 -20 0
-18 -21 0
-18 -22 0
-18 -23 0
-19 -32 0
-19 -33 0
-19 -34 0
-19 -35 0
-19 -36 0
-20 -31 0
-20 -33 0
-20 -34 0
-20 -35 0
-20 -36 0
-21 -31 0
-21 -32 0
-21 -34 0
-21 -35 0
-21 -36 0
-22 -31 0
-22 -32 0
-22 -33 0
-22 -35 0
-22 -36 0
-23 -31 0
-23 -32 0
-23 -33 0
-23 -34 0
-23 -36 0
-24 -31 0
-24 -32 0
-24 -33 0
-24 -34 0
-24 -35 0
-19 -38 0
-19 -39 0
-19 -40 0
-19 -41 0
-19 -42 0
-20 -37 0
-20 -39 0
-20 -40 0
-20 -41 0
-20 -42 0
-21 -37 0
-21 -38 0
-21 -40 0
-21 -41 0
-21 -42 0
-22 -37 0
-22 -38 0
-22 -39 0
-22 -41 0
-22 -42 0
-23 -37 0
-23 -38 0
-23 -39 0
-23 -40 0
-23 -42 0
-24 -37 0
-24 -38 0
-24 -39 0
-24 -40 0
-24 -41 0
-25 -38 0
-25 -39 0
-25 -40 0
-25 -41 0
-25 -42 0
-26 -37 0
-26 -39 0
-26 -40 0
-26 -41 0
-26 -42 0
-27 -37 0
-27 -38 0
-27 -40 0
-27 -41 0
-27 -42 0
-28 -37 0
-28 -38 0
-28 -39 0
-28 -41 0
-28 -42 0
-29 -37 0
-29 -38 0
-29 -39 0
-29 -40 0
-29 -42 0
-30 -37 0
-30 -38 0
-30 -39 0
-30 -40 0
-30 -41 0
-31 -44 0
-31 -45 0
-31 -46 0
-31 -47 0
-31 -48 0
-32 -43 0
-32 -45 0
-32 -46 0
-32 -47 0
-32 -48 0
-33 -43 0
-33 -44 0
-33 -46 0
-33 -47 0
-33 -48 0
-34 -43 0
-34 -44 0
-34 -45 0
-34 -47 0
-34 -48 0
-35 -43 0
-35 -44 0
-35 -45 0
-35 -46 0
-35 -48 0
-36 -43 0
-36 -44 0
-36 -45 0
-36 -46 0
-36 -47 0
-31 -50 0
-31 -51 0
-31 -52 0
-31 -53 0
-31 -54 0
-32 -49 0
-32 -51 0
-32 -52 0
-32 -53 0
-32 -54 0
-33 -49 0
-33 -50 0
-33 -52 0
-33 -53 0
-33 -54 0
-34 -49 0
-34 -50 0
-34 -51 0
-34 -53 0
-34 -54 0
-35 -49 0
-35 -50 0
-35 -51 0
-35 -52 0
-35 -54 0
-36 -49 0
-36 -50 0
-36 -51 0
-36 -52 0
-36 -53 0
-37 -50 0
-37 -51 0
-37 -52 0
-37 -53 0
-37 -54 0
-38 -49 0
-38 -51 0
-38 -52 0
-38 -53 0
-38 -54 0
-39 -49 0
-39 -50 0
-39 -52 0
-39 -53 0
-39 -54 0
-40 -49 0
-40 -50 0
-40 -51 0
-40 -53 0
-40 -54 0
-41 -49 0
-41 -50 0
-41 -51 0
-41 -52 0
-41 -54 0
-42 -49 0
-42 -50 0
-42 -51 0
-42 -52 0
-42 -53 0
